2,3
3,9
5,5
7,2
8,8
10,5
12,2
13,9
15,6
17,6
19,8
22,0
24,2
26,4
28,7
30,9
33,1
35,3
37,5
39,7
41,9
44,2
46,4
48,6
50,8
53,0
55,2
57,5
59,7
61,9
64,1
66,3
68,5
70,8
73,0
74,1
74,1
74,1
74,1
74,1
74,1
74,1
74,1
74,1
74,1
74,1
74,1
74,1
74,1
74,1
74,1
74,1
74,1
74,1
74,1
74,1
74,1
74,1
74,1
74,1
74,1
74,1
74,1
74,1
74,1
74,1
74,1
74,1
74,1
74,1
74,1
0,0
0,0
